(declare-const a Real)
(declare-const b Real)
(declare-const c Real)
(assert (= (+ a b c) 1))
(assert (>= a 0))
(assert (>= b 0))
(assert (>= c 0))
(assert (not (<= (+ (/ -7 18) (* (pow (+ a b c) 2) (pow (+ (pow b 2) (* 9 (pow (+ a b c) 2)) (* -4 b (+ a b c))) -1)) (* (pow (+ a b c) 2) (pow (+ (pow c 2) (* 9 (pow (+ a b c) 2)) (* -4 c (+ a b c))) -1)) (* (pow (+ (* 3 (pow a 2)) (* 27 (pow (+ a b c) 2)) (* -12 a (+ a b c))) -1) (+ 2 (pow (+ a b c) 3)) (+ a b c))) 0)))
(check-sat)
(get-model)
(exit)